language Essence 1.3

letting bot_end be [745, 105, 78, 797, 798, 565, 119, 792, 27, 79, 244, 15, 53, 16, 109, 779, 669; int(1..17)]
letting bot_start be [286, 717, 560, 203, 337, 76, 626, 359, 772, 623, 773, 457, 551, 669, 760, 178, 64; int(1..17)]
letting buffer_col be 2
letting buffer_row be 2
letting corridor_size be 2
letting n_shelves_col be 1
letting n_shelves_row be 32
letting shelf_col_size be 2
letting shelf_row_size be 1
